DIMACS_lns/graph-1000-248.col
p edge 1000 1811
e 2 796
e 2 698
e 2 145
e 2 225
e 4 153
e 4 437
e 4 838
e 4 662
e 4 766
e 5 636
e 5 264
e 5 838
e 6 707
e 6 321
e 6 419
e 7 234
e 7 92
e 7 35
e 8 402
e 8 595
e 8 773
e 8 506
e 8 474
e 8 390
e 8 672
e 9 323
e 9 361
e 9 517
e 9 612
e 9 424
e 10 917
e 10 25
e 10 130
e 10 829
e 11 573
e 11 730
e 11 59
e 11 193
e 11 459
e 11 104
e 11 448
e 12 233
e 12 975
e 12 330
e 12 669
e 12 632
e 14 530
e 14 820
e 14 402
e 14 57
e 14 880
e 15 984
e 15 672
e 15 737
e 16 851
e 16 822
e 16 622
e 16 930
e 16 942
e 17 316
e 17 790
e 17 610
e 17 390
e 18 905
e 18 157
e 18 42
e 18 576
e 18 751
e 19 275
e 19 302
e 19 645
e 19 368
e 19 753
e 21 735
e 21 32
e 21 593
e 21 516
e 21 312
e 22 393
e 22 265
e 22 608
e 23 589
e 23 894
e 23 777
e 23 998
e 24 421
e 24 35
e 24 447
e 24 785
e 24 746
e 24 33
e 25 174
e 25 704
e 25 578
e 25 769
e 25 503
e 25 696
e 27 699
e 27 684
e 27 840
e 27 732
e 28 626
e 28 905
e 28 704
e 28 848
e 28 588
e 29 490
e 29 217
e 29 388
e 29 573
e 30 524
e 30 814
e 30 192
e 30 788
e 30 1000
e 30 320
e 32 413
e 32 992
e 32 690
e 33 51
e 33 157
e 33 895
e 33 201
e 33 131
e 33 822
e 33 73
e 33 164
e 34 535
e 34 36
e 34 523
e 35 97
e 35 386
e 36 286
e 36 392
e 36 370
e 36 142
e 36 192
e 37 625
e 37 227
e 37 543
e 37 209
e 38 320
e 38 406
e 38 678
e 38 911
e 39 74
e 39 250
e 39 283
e 40 218
e 40 929
e 40 905
e 40 454
e 40 707
e 40 295
e 40 751
e 40 781
e 41 850
e 41 990
e 41 615
e 41 860
e 41 301
e 41 130
e 41 729
e 41 618
e 42 433
e 42 659
e 42 71
e 42 956
e 42 362
e 42 641
e 43 453
e 43 117
e 43 55
e 43 626
e 43 518
e 43 511
e 44 513
e 44 956
e 44 312
e 44 256
e 45 769
e 45 971
e 45 392
e 45 463
e 45 772
e 46 431
e 46 356
e 46 667
e 46 84
e 47 630
e 47 416
e 47 81
e 47 880
e 47 837
e 50 262
e 50 460
e 50 672
e 50 885
e 51 704
e 51 566
e 51 211
e 52 635
e 52 793
e 52 684
e 53 902
e 53 191
e 53 336
e 54 747
e 54 353
e 54 853
e 54 538
e 54 350
e 55 328
e 55 949
e 55 696
e 55 497
e 55 622
e 57 61
e 57 659
e 57 239
e 57 159
e 59 312
e 59 918
e 59 647
e 59 454
e 59 732
e 59 751
e 60 528
e 60 330
e 60 62
e 60 873
e 60 351
e 60 833
e 61 274
e 61 525
e 62 81
e 62 287
e 62 359
e 62 917
e 62 88
e 63 368
e 63 802
e 63 721
e 64 328
e 64 181
e 64 205
e 64 876
e 67 380
e 67 411
e 67 801
e 67 979
e 67 809
e 67 125
e 67 138
e 67 334
e 67 650
e 68 837
e 68 707
e 68 466
e 68 292
e 68 764
e 68 530
e 68 78
e 69 904
e 69 917
e 69 778
e 70 277
e 70 271
e 70 661
e 71 98
e 71 728
e 71 944
e 71 971
e 73 421
e 73 529
e 73 489
e 74 754
e 74 276
e 74 230
e 74 121
e 74 212
e 76 323
e 76 343
e 76 93
e 76 280
e 77 719
e 77 402
e 77 448
e 77 316
e 77 390
e 77 836
e 78 342
e 78 362
e 78 984
e 78 452
e 78 484
e 79 912
e 79 536
e 79 878
e 79 121
e 79 320
e 80 712
e 80 299
e 80 225
e 80 903
e 80 513
e 80 275
e 80 688
e 80 279
e 81 527
e 82 298
e 82 956
e 82 252
e 82 355
e 82 382
e 82 845
e 83 902
e 83 157
e 83 99
e 83 998
e 83 987
e 84 245
e 84 283
e 85 628
e 85 929
e 85 396
e 85 607
e 85 730
e 86 339
e 86 657
e 86 340
e 86 143
e 86 456
e 87 101
e 87 290
e 87 780
e 87 89
e 88 987
e 88 365
e 88 647
e 88 962
e 88 234
e 89 942
e 89 324
e 89 387
e 90 652
e 90 546
e 90 848
e 90 495
e 90 213
e 90 405
e 91 299
e 91 878
e 91 513
e 91 634
e 91 606
e 92 463
e 92 611
e 92 876
e 93 411
e 93 997
e 95 380
e 95 392
e 95 511
e 95 358
e 95 468
e 95 884
e 95 831
e 95 810
e 97 486
e 97 890
e 97 331
e 97 155
e 98 541
e 98 704
e 98 762
e 99 651
e 99 694
e 99 253
e 99 990
e 99 654
e 101 781
e 101 715
e 101 688
e 101 522
e 102 346
e 102 577
e 102 898
e 102 218
e 104 458
e 104 895
e 104 943
e 106 770
e 106 808
e 106 341
e 107 713
e 107 473
e 107 166
e 110 191
e 110 803
e 110 343
e 110 828
e 110 989
e 110 982
e 110 967
e 110 867
e 110 209
e 111 130
e 111 769
e 111 386
e 112 155
e 112 808
e 112 157
e 113 162
e 113 292
e 113 990
e 113 896
e 113 898
e 114 613
e 114 137
e 114 836
e 114 963
e 114 395
e 117 397
e 117 398
e 117 388
e 121 764
e 121 286
e 122 735
e 122 296
e 122 652
e 123 445
e 123 539
e 123 435
e 123 212
e 123 889
e 123 230
e 124 368
e 124 604
e 124 413
e 124 475
e 125 680
e 125 667
e 125 777
e 126 544
e 126 613
e 126 737
e 126 497
e 126 405
e 126 743
e 126 777
e 126 607
e 128 181
e 128 932
e 128 546
e 129 976
e 129 413
e 129 816
e 130 606
e 130 511
e 130 219
e 130 338
e 130 610
e 131 746
e 131 902
e 131 240
e 131 336
e 131 588
e 132 685
e 132 978
e 132 991
e 132 622
e 132 154
e 132 670
e 135 750
e 135 780
e 135 310
e 135 223
e 136 427
e 136 426
e 136 159
e 136 280
e 136 379
e 136 362
e 136 622
e 137 594
e 137 730
e 137 696
e 138 748
e 138 911
e 138 756
e 138 612
e 138 331
e 139 990
e 139 296
e 139 744
e 140 588
e 140 979
e 140 729
e 142 766
e 142 823
e 143 398
e 143 224
e 143 992
e 144 493
e 144 777
e 144 931
e 144 238
e 145 435
e 145 569
e 145 922
e 145 691
e 145 776
e 147 598
e 147 339
e 147 334
e 147 386
e 149 608
e 149 431
e 149 642
e 150 764
e 150 191
e 150 671
e 151 581
e 151 870
e 151 401
e 151 533
e 151 832
e 152 355
e 152 770
e 152 740
e 153 480
e 153 438
e 153 312
e 153 706
e 153 751
e 153 610
e 153 321
e 153 730
e 153 867
e 154 347
e 154 311
e 154 420
e 154 573
e 154 801
e 155 642
e 155 606
e 157 161
e 157 396
e 157 320
e 157 794
e 157 864
e 158 743
e 158 630
e 158 215
e 158 294
e 159 978
e 159 930
e 159 622
e 161 363
e 161 449
e 161 648
e 161 623
e 162 404
e 162 860
e 162 632
e 162 605
e 162 166
e 163 538
e 163 465
e 163 297
e 164 685
e 164 334
e 164 414
e 164 442
e 165 905
e 165 714
e 165 581
e 166 284
e 166 512
e 166 428
e 166 476
e 168 662
e 168 551
e 168 522
e 169 690
e 169 491
e 169 253
e 169 564
e 170 240
e 170 999
e 170 577
e 170 714
e 170 335
e 170 980
e 173 428
e 173 425
e 173 969
e 173 576
e 173 963
e 174 535
e 174 264
e 174 692
e 174 691
e 175 338
e 175 528
e 175 802
e 176 470
e 176 919
e 176 765
e 176 294
e 176 424
e 176 856
e 176 467
e 177 878
e 177 534
e 177 821
e 178 330
e 178 580
e 178 783
e 178 909
e 178 465
e 178 519
e 178 518
e 178 290
e 179 283
e 179 618
e 179 269
e 179 854
e 180 262
e 180 941
e 180 770
e 181 772
e 181 816
e 183 937
e 183 577
e 183 199
e 186 678
e 186 261
e 186 750
e 186 452
e 188 354
e 188 788
e 188 709
e 190 544
e 190 608
e 190 795
e 190 890
e 191 841
e 191 842
e 191 263
e 192 987
e 192 239
e 192 907
e 193 625
e 193 577
e 194 828
e 194 420
e 194 223
e 195 812
e 195 863
e 195 970
e 195 662
e 197 655
e 197 223
e 197 553
e 198 655
e 198 229
e 198 848
e 198 891
e 199 536
e 199 773
e 199 820
e 199 387
e 200 733
e 200 648
e 200 223
e 201 435
e 201 780
e 202 695
e 202 975
e 202 734
e 202 577
e 204 819
e 204 925
e 204 984
e 204 551
e 204 720
e 204 331
e 205 574
e 205 411
e 205 295
e 206 898
e 206 495
e 206 967
e 206 242
e 206 405
e 206 379
e 208 762
e 208 248
e 208 262
e 209 689
e 209 907
e 209 360
e 209 790
e 210 942
e 210 993
e 210 776
e 210 566
e 210 644
e 211 975
e 211 578
e 211 941
e 211 304
e 211 328
e 211 748
e 212 840
e 212 954
e 213 806
e 213 229
e 213 877
e 213 958
e 213 333
e 213 266
e 213 622
e 213 427
e 213 514
e 215 390
e 215 918
e 215 594
e 217 401
e 217 945
e 217 425
e 217 451
e 218 903
e 218 486
e 218 480
e 218 242
e 218 855
e 219 688
e 219 963
e 219 888
e 221 635
e 221 348
e 221 291
e 222 782
e 222 540
e 222 863
e 223 661
e 223 455
e 223 261
e 224 729
e 224 918
e 224 635
e 224 347
e 225 708
e 225 644
e 225 406
e 225 795
e 226 690
e 226 353
e 226 453
e 227 663
e 227 657
e 227 678
e 228 286
e 228 701
e 228 532
e 229 795
e 229 642
e 229 984
e 229 587
e 230 822
e 230 539
e 230 823
e 233 303
e 233 729
e 233 794
e 234 626
e 238 877
e 238 370
e 238 732
e 238 993
e 238 384
e 238 709
e 238 785
e 238 768
e 238 272
e 239 939
e 239 595
e 239 287
e 240 390
e 240 834
e 241 685
e 241 778
e 241 496
e 241 593
e 241 312
e 242 919
e 242 958
e 242 834
e 243 497
e 243 885
e 243 581
e 245 669
e 245 455
e 248 529
e 248 758
e 248 892
e 248 271
e 250 279
e 250 289
e 250 421
e 252 513
e 252 671
e 252 588
e 253 790
e 253 424
e 253 912
e 253 350
e 253 407
e 254 459
e 254 919
e 254 607
e 254 852
e 256 879
e 256 697
e 256 828
e 256 847
e 256 446
e 257 855
e 257 957
e 257 328
e 259 711
e 259 595
e 259 341
e 261 695
e 261 311
e 261 608
e 261 764
e 262 482
e 262 421
e 263 974
e 263 445
e 263 265
e 264 712
e 264 732
e 264 321
e 264 661
e 264 883
e 264 379
e 264 332
e 264 268
e 265 509
e 265 794
e 265 672
e 265 559
e 266 302
e 266 928
e 266 938
e 266 333
e 267 297
e 267 746
e 267 803
e 268 849
e 268 777
e 268 539
e 268 492
e 269 576
e 269 806
e 269 588
e 270 495
e 270 929
e 270 512
e 270 880
e 271 300
e 271 407
e 271 641
e 271 712
e 272 966
e 272 576
e 272 653
e 273 540
e 273 773
e 273 400
e 273 509
e 273 311
e 273 454
e 273 312
e 274 540
e 274 947
e 275 382
e 275 303
e 275 367
e 275 859
e 276 485
e 276 853
e 276 558
e 277 785
e 277 659
e 277 842
e 277 284
e 277 943
e 279 551
e 279 615
e 280 523
e 280 769
e 281 446
e 281 667
e 281 320
e 281 571
e 282 507
e 282 430
e 282 482
e 283 743
e 283 569
e 283 421
e 284 438
e 284 963
e 284 731
e 287 533
e 287 565
e 289 539
e 289 786
e 289 897
e 290 696
e 290 605
e 290 384
e 291 380
e 291 837
e 291 346
e 291 489
e 291 406
e 292 757
e 292 961
e 292 857
e 292 733
e 292 347
e 292 788
e 294 990
e 294 853
e 294 814
e 294 661
e 294 323
e 294 541
e 295 540
e 295 389
e 296 885
e 296 683
e 297 359
e 297 879
e 297 834
e 297 799
e 297 891
e 298 346
e 298 300
e 298 353
e 299 420
e 299 783
e 299 977
e 299 475
e 299 543
e 299 451
e 300 616
e 300 979
e 300 889
e 300 536
e 301 412
e 301 560
e 301 399
e 302 581
e 302 384
e 302 467
e 302 662
e 302 443
e 303 983
e 303 435
e 303 694
e 303 451
e 304 909
e 304 367
e 304 860
e 308 965
e 308 787
e 308 910
e 308 764
e 309 353
e 309 553
e 309 579
e 309 575
e 309 492
e 309 330
e 310 720
e 310 983
e 310 891
e 310 534
e 311 541
e 312 903
e 312 816
e 312 440
e 314 675
e 314 478
e 314 555
e 315 969
e 315 796
e 315 752
e 315 952
e 316 769
e 316 419
e 320 453
e 321 927
e 321 627
e 323 825
e 323 822
e 324 894
e 324 432
e 324 698
e 328 846
e 328 877
e 328 417
e 330 919
e 330 803
e 330 388
e 330 989
e 330 963
e 331 419
e 331 943
e 331 524
e 332 675
e 332 573
e 332 488
e 333 522
e 333 639
e 333 616
e 333 427
e 334 406
e 334 532
e 334 590
e 334 655
e 334 711
e 335 800
e 335 696
e 336 475
e 336 864
e 336 889
e 338 827
e 338 501
e 338 659
e 338 683
e 338 635
e 338 746
e 338 906
e 339 606
e 339 714
e 340 492
e 340 650
e 340 731
e 341 416
e 341 850
e 342 999
e 342 814
e 342 565
e 342 538
e 343 990
e 343 800
e 343 961
e 344 605
e 344 897
e 344 808
e 345 992
e 345 560
e 345 431
e 346 757
e 346 941
e 346 997
e 346 653
e 348 652
e 348 877
e 348 713
e 348 399
e 350 715
e 350 565
e 350 437
e 350 368
e 351 491
e 351 356
e 351 644
e 351 367
e 351 631
e 353 958
e 353 449
e 353 434
e 354 879
e 354 887
e 354 703
e 354 859
e 355 435
e 356 897
e 357 426
e 357 558
e 357 515
e 357 975
e 358 855
e 358 830
e 359 639
e 360 956
e 360 398
e 360 793
e 361 488
e 361 889
e 362 984
e 362 882
e 363 706
e 363 717
e 363 616
e 365 746
e 365 712
e 367 427
e 367 532
e 368 455
e 368 595
e 368 484
e 368 401
e 370 612
e 370 395
e 370 979
e 371 778
e 371 851
e 371 903
e 371 982
e 371 692
e 374 984
e 374 861
e 374 879
e 374 855
e 374 743
e 374 945
e 378 825
e 378 491
e 378 422
e 378 466
e 379 656
e 379 527
e 379 756
e 380 781
e 380 919
e 382 426
e 382 802
e 382 524
e 382 975
e 382 501
e 382 540
e 384 720
e 384 667
e 384 941
e 386 878
e 386 588
e 386 398
e 386 630
e 387 669
e 388 405
e 389 482
e 389 558
e 389 438
e 389 982
e 389 831
e 390 655
e 391 947
e 391 595
e 391 746
e 391 434
e 391 879
e 392 712
e 392 560
e 392 957
e 393 728
e 393 905
e 395 436
e 395 854
e 395 458
e 396 425
e 396 559
e 397 832
e 397 864
e 397 728
e 398 716
e 398 758
e 399 841
e 399 706
e 400 802
e 400 474
e 400 527
e 400 916
e 400 506
e 400 488
e 401 466
e 401 407
e 401 668
e 401 489
e 402 952
e 402 663
e 404 521
e 404 846
e 405 825
e 405 580
e 405 512
e 405 802
e 405 611
e 405 506
e 406 906
e 406 503
e 406 991
e 406 663
e 406 829
e 411 497
e 412 503
e 412 478
e 412 472
e 413 879
e 414 856
e 414 447
e 415 723
e 415 603
e 415 916
e 416 937
e 416 890
e 416 484
e 417 584
e 417 992
e 419 736
e 420 572
e 420 955
e 420 645
e 420 426
e 421 768
e 421 536
e 421 966
e 421 470
e 421 759
e 421 572
e 421 889
e 422 444
e 422 670
e 422 765
e 424 528
e 424 955
e 424 501
e 425 883
e 425 476
e 426 927
e 426 685
e 427 669
e 427 505
e 427 852
e 427 647
e 428 874
e 429 538
e 429 604
e 429 883
e 429 772
e 430 937
e 430 961
e 430 848
e 431 463
e 431 900
e 431 569
e 432 937
e 432 697
e 432 898
e 432 507
e 433 589
e 433 987
e 433 438
e 433 897
e 434 651
e 436 840
e 436 812
e 437 772
e 437 768
e 438 651
e 438 918
e 440 524
e 440 509
e 440 733
e 442 576
e 442 977
e 442 905
e 442 809
e 443 455
e 443 945
e 443 999
e 443 639
e 443 541
e 444 842
e 444 588
e 445 584
e 445 663
e 446 850
e 446 610
e 446 878
e 446 721
e 446 548
e 447 833
e 447 566
e 447 453
e 447 788
e 448 578
e 448 830
e 448 794
e 448 954
e 448 529
e 448 475
e 448 795
e 449 847
e 449 654
e 449 622
e 449 634
e 451 521
e 451 967
e 451 838
e 452 743
e 452 674
e 453 553
e 453 533
e 454 505
e 455 641
e 455 977
e 455 577
e 455 870
e 455 903
e 456 607
e 456 543
e 456 539
e 456 993
e 458 472
e 458 820
e 458 559
e 459 496
e 460 672
e 460 652
e 460 543
e 463 832
e 465 783
e 465 706
e 465 553
e 465 784
e 465 645
e 466 509
e 466 475
e 466 877
e 466 849
e 467 528
e 467 859
e 468 505
e 468 618
e 468 934
e 470 571
e 472 515
e 472 516
e 473 944
e 473 476
e 473 658
e 474 966
e 474 615
e 474 599
e 478 642
e 480 607
e 482 834
e 482 929
e 484 598
e 485 706
e 485 932
e 485 491
e 485 603
e 486 855
e 486 873
e 488 970
e 489 571
e 489 895
e 489 671
e 489 509
e 489 599
e 490 716
e 490 541
e 490 809
e 490 906
e 492 612
e 493 598
e 493 864
e 495 565
e 495 836
e 495 781
e 495 713
e 496 615
e 496 877
e 496 548
e 503 942
e 503 690
e 505 747
e 505 864
e 505 542
e 505 608
e 505 612
e 506 945
e 506 683
e 506 999
e 507 513
e 509 698
e 509 925
e 511 778
e 511 559
e 511 892
e 511 845
e 513 838
e 513 956
e 513 938
e 514 884
e 514 906
e 514 623
e 514 979
e 515 559
e 515 812
e 515 564
e 516 728
e 516 955
e 516 723
e 517 812
e 517 948
e 518 541
e 519 574
e 519 532
e 519 949
e 521 602
e 522 823
e 523 793
e 525 540
e 525 657
e 525 626
e 525 795
e 527 668
e 527 751
e 527 560
e 528 787
e 528 580
e 528 634
e 528 934
e 528 590
e 529 569
e 529 947
e 530 659
e 532 977
e 532 966
e 532 772
e 532 599
e 533 932
e 534 851
e 534 558
e 534 694
e 534 956
e 534 957
e 534 670
e 535 992
e 538 799
e 539 716
e 539 983
e 539 597
e 540 854
e 540 794
e 540 729
e 540 909
e 541 952
e 541 969
e 542 781
e 542 819
e 542 860
e 543 605
e 543 980
e 543 655
e 544 667
e 544 927
e 546 885
e 548 917
e 548 720
e 551 589
e 553 819
e 555 766
e 555 773
e 558 898
e 558 721
e 560 833
e 560 616
e 560 605
e 560 650
e 564 900
e 564 947
e 564 678
e 565 735
e 566 578
e 566 751
e 566 595
e 567 794
e 567 775
e 567 697
e 569 776
e 569 597
e 569 674
e 569 607
e 571 809
e 572 850
e 572 626
e 573 807
e 574 912
e 575 979
e 575 711
e 575 859
e 577 752
e 579 989
e 579 758
e 579 869
e 580 864
e 580 581
e 584 851
e 587 656
e 587 888
e 589 948
e 589 770
e 590 667
e 590 974
e 593 713
e 594 873
e 594 828
e 594 896
e 595 602
e 595 719
e 597 735
e 597 618
e 597 699
e 597 729
e 598 931
e 598 801
e 599 884
e 599 887
e 599 630
e 599 900
e 599 858
e 602 735
e 603 845
e 603 639
e 604 785
e 605 691
e 605 919
e 606 943
e 606 733
e 607 709
e 607 944
e 607 762
e 610 616
e 610 690
e 610 786
e 611 814
e 612 847
e 613 616
e 615 725
e 618 668
e 618 698
e 618 736
e 621 626
e 621 627
e 621 831
e 623 922
e 625 823
e 625 656
e 627 958
e 628 748
e 628 894
e 631 748
e 631 831
e 631 971
e 632 859
e 632 683
e 634 746
e 634 888
e 634 821
e 635 900
e 635 731
e 635 898
e 636 863
e 636 662
e 639 650
e 641 652
e 641 777
e 642 891
e 644 650
e 645 709
e 645 799
e 645 727
e 645 978
e 647 894
e 648 846
e 650 860
e 650 806
e 650 701
e 651 891
e 653 698
e 653 727
e 654 932
e 655 834
e 657 715
e 657 925
e 657 816
e 658 861
e 658 827
e 659 969
e 662 690
e 663 712
e 668 783
e 669 701
e 670 984
e 670 776
e 670 929
e 670 966
e 671 833
e 671 785
e 671 689
e 672 768
e 672 790
e 672 729
e 672 932
e 674 861
e 674 891
e 675 916
e 678 845
e 678 833
e 680 827
e 680 740
e 683 721
e 684 735
e 684 783
e 689 746
e 689 929
e 689 906
e 690 744
e 692 857
e 692 711
e 695 734
e 695 902
e 697 800
e 697 730
e 697 766
e 698 770
e 698 748
e 699 1000
e 699 831
e 701 888
e 701 814
e 703 919
e 703 992
e 703 807
e 707 757
e 708 777
e 708 799
e 709 889
e 709 733
e 709 857
e 711 754
e 711 887
e 712 963
e 712 918
e 714 870
e 715 910
e 715 765
e 716 801
e 717 807
e 717 859
e 719 810
e 720 993
e 720 856
e 721 941
e 723 876
e 723 773
e 723 975
e 725 904
e 725 842
e 725 885
e 727 934
e 727 900
e 728 765
e 729 842
e 734 989
e 734 768
e 736 970
e 736 869
e 736 843
e 737 753
e 740 848
e 740 782
e 740 906
e 740 987
e 744 944
e 746 837
e 746 796
e 746 979
e 747 809
e 747 917
e 750 853
e 751 974
e 752 910
e 752 783
e 753 878
e 754 978
e 756 773
e 759 910
e 759 883
e 765 831
e 766 825
e 770 896
e 770 841
e 773 849
e 773 884
e 775 916
e 775 978
e 776 991
e 777 879
e 777 843
e 781 807
e 781 842
e 782 944
e 784 961
e 784 889
e 786 850
e 786 948
e 786 969
e 787 904
e 788 794
e 794 883
e 796 928
e 796 897
e 800 931
e 801 858
e 802 947
e 807 976
e 807 827
e 808 975
e 809 938
e 810 969
e 812 1000
e 812 934
e 812 820
e 821 919
e 821 949
e 822 938
e 823 878
e 827 976
e 827 987
e 828 841
e 828 878
e 829 857
e 829 900
e 830 867
e 831 911
e 833 854
e 834 962
e 836 947
e 836 843
e 843 894
e 845 884
e 845 980
e 846 954
e 847 860
e 849 965
e 849 852
e 851 954
e 853 927
e 854 944
e 855 969
e 855 869
e 856 861
e 858 905
e 859 917
e 861 965
e 861 941
e 869 879
e 870 993
e 874 1000
e 874 974
e 882 939
e 882 998
e 882 977
e 885 916
e 885 962
e 888 928
e 890 938
e 892 928
e 897 943
e 905 976
e 906 942
e 907 910
e 907 930
e 911 963
e 917 928
e 917 983
e 922 962
e 928 980
e 930 956
e 931 941
e 939 989
e 943 962
e 949 997
e 954 983
e 956 970
e 965 993
