txt_Ins/graph-1000-248.txt
n 1000
e 1 795
e 1 697
e 1 144
e 1 224
e 3 152
e 3 436
e 3 837
e 3 661
e 3 765
e 4 635
e 4 263
e 4 837
e 5 706
e 5 320
e 5 418
e 6 233
e 6 91
e 6 34
e 7 401
e 7 594
e 7 772
e 7 505
e 7 473
e 7 389
e 7 671
e 8 322
e 8 360
e 8 516
e 8 611
e 8 423
e 9 916
e 9 24
e 9 129
e 9 828
e 10 572
e 10 729
e 10 58
e 10 192
e 10 458
e 10 103
e 10 447
e 11 232
e 11 974
e 11 329
e 11 668
e 11 631
e 13 529
e 13 819
e 13 401
e 13 56
e 13 879
e 14 983
e 14 671
e 14 736
e 15 850
e 15 821
e 15 621
e 15 929
e 15 941
e 16 315
e 16 789
e 16 609
e 16 389
e 17 904
e 17 156
e 17 41
e 17 575
e 17 750
e 18 274
e 18 301
e 18 644
e 18 367
e 18 752
e 20 734
e 20 31
e 20 592
e 20 515
e 20 311
e 21 392
e 21 264
e 21 607
e 22 588
e 22 893
e 22 776
e 22 997
e 23 420
e 23 34
e 23 446
e 23 784
e 23 745
e 23 32
e 24 173
e 24 703
e 24 577
e 24 768
e 24 502
e 24 695
e 26 698
e 26 683
e 26 839
e 26 731
e 27 625
e 27 904
e 27 703
e 27 847
e 27 587
e 28 489
e 28 216
e 28 387
e 28 572
e 29 523
e 29 813
e 29 191
e 29 787
e 29 999
e 29 319
e 31 412
e 31 991
e 31 689
e 32 50
e 32 156
e 32 894
e 32 200
e 32 130
e 32 821
e 32 72
e 32 163
e 33 534
e 33 35
e 33 522
e 34 96
e 34 385
e 35 285
e 35 391
e 35 369
e 35 141
e 35 191
e 36 624
e 36 226
e 36 542
e 36 208
e 37 319
e 37 405
e 37 677
e 37 910
e 38 73
e 38 249
e 38 282
e 39 217
e 39 928
e 39 904
e 39 453
e 39 706
e 39 294
e 39 750
e 39 780
e 40 849
e 40 989
e 40 614
e 40 859
e 40 300
e 40 129
e 40 728
e 40 617
e 41 432
e 41 658
e 41 70
e 41 955
e 41 361
e 41 640
e 42 452
e 42 116
e 42 54
e 42 625
e 42 517
e 42 510
e 43 512
e 43 955
e 43 311
e 43 255
e 44 768
e 44 970
e 44 391
e 44 462
e 44 771
e 45 430
e 45 355
e 45 666
e 45 83
e 46 629
e 46 415
e 46 80
e 46 879
e 46 836
e 49 261
e 49 459
e 49 671
e 49 884
e 50 703
e 50 565
e 50 210
e 51 634
e 51 792
e 51 683
e 52 901
e 52 190
e 52 335
e 53 746
e 53 352
e 53 852
e 53 537
e 53 349
e 54 327
e 54 948
e 54 695
e 54 496
e 54 621
e 56 60
e 56 658
e 56 238
e 56 158
e 58 311
e 58 917
e 58 646
e 58 453
e 58 731
e 58 750
e 59 527
e 59 329
e 59 61
e 59 872
e 59 350
e 59 832
e 60 273
e 60 524
e 61 80
e 61 286
e 61 358
e 61 916
e 61 87
e 62 367
e 62 801
e 62 720
e 63 327
e 63 180
e 63 204
e 63 875
e 66 379
e 66 410
e 66 800
e 66 978
e 66 808
e 66 124
e 66 137
e 66 333
e 66 649
e 67 836
e 67 706
e 67 465
e 67 291
e 67 763
e 67 529
e 67 77
e 68 903
e 68 916
e 68 777
e 69 276
e 69 270
e 69 660
e 70 97
e 70 727
e 70 943
e 70 970
e 72 420
e 72 528
e 72 488
e 73 753
e 73 275
e 73 229
e 73 120
e 73 211
e 75 322
e 75 342
e 75 92
e 75 279
e 76 718
e 76 401
e 76 447
e 76 315
e 76 389
e 76 835
e 77 341
e 77 361
e 77 983
e 77 451
e 77 483
e 78 911
e 78 535
e 78 877
e 78 120
e 78 319
e 79 711
e 79 298
e 79 224
e 79 902
e 79 512
e 79 274
e 79 687
e 79 278
e 80 526
e 81 297
e 81 955
e 81 251
e 81 354
e 81 381
e 81 844
e 82 901
e 82 156
e 82 98
e 82 997
e 82 986
e 83 244
e 83 282
e 84 627
e 84 928
e 84 395
e 84 606
e 84 729
e 85 338
e 85 656
e 85 339
e 85 142
e 85 455
e 86 100
e 86 289
e 86 779
e 86 88
e 87 986
e 87 364
e 87 646
e 87 961
e 87 233
e 88 941
e 88 323
e 88 386
e 89 651
e 89 545
e 89 847
e 89 494
e 89 212
e 89 404
e 90 298
e 90 877
e 90 512
e 90 633
e 90 605
e 91 462
e 91 610
e 91 875
e 92 410
e 92 996
e 94 379
e 94 391
e 94 510
e 94 357
e 94 467
e 94 883
e 94 830
e 94 809
e 96 485
e 96 889
e 96 330
e 96 154
e 97 540
e 97 703
e 97 761
e 98 650
e 98 693
e 98 252
e 98 989
e 98 653
e 100 780
e 100 714
e 100 687
e 100 521
e 101 345
e 101 576
e 101 897
e 101 217
e 103 457
e 103 894
e 103 942
e 105 769
e 105 807
e 105 340
e 106 712
e 106 472
e 106 165
e 109 190
e 109 802
e 109 342
e 109 827
e 109 988
e 109 981
e 109 966
e 109 866
e 109 208
e 110 129
e 110 768
e 110 385
e 111 154
e 111 807
e 111 156
e 112 161
e 112 291
e 112 989
e 112 895
e 112 897
e 113 612
e 113 136
e 113 835
e 113 962
e 113 394
e 116 396
e 116 397
e 116 387
e 120 763
e 120 285
e 121 734
e 121 295
e 121 651
e 122 444
e 122 538
e 122 434
e 122 211
e 122 888
e 122 229
e 123 367
e 123 603
e 123 412
e 123 474
e 124 679
e 124 666
e 124 776
e 125 543
e 125 612
e 125 736
e 125 496
e 125 404
e 125 742
e 125 776
e 125 606
e 127 180
e 127 931
e 127 545
e 128 975
e 128 412
e 128 815
e 129 605
e 129 510
e 129 218
e 129 337
e 129 609
e 130 745
e 130 901
e 130 239
e 130 335
e 130 587
e 131 684
e 131 977
e 131 990
e 131 621
e 131 153
e 131 669
e 134 749
e 134 779
e 134 309
e 134 222
e 135 426
e 135 425
e 135 158
e 135 279
e 135 378
e 135 361
e 135 621
e 136 593
e 136 729
e 136 695
e 137 747
e 137 910
e 137 755
e 137 611
e 137 330
e 138 989
e 138 295
e 138 743
e 139 587
e 139 978
e 139 728
e 141 765
e 141 822
e 142 397
e 142 223
e 142 991
e 143 492
e 143 776
e 143 930
e 143 237
e 144 434
e 144 568
e 144 921
e 144 690
e 144 775
e 146 597
e 146 338
e 146 333
e 146 385
e 148 607
e 148 430
e 148 641
e 149 763
e 149 190
e 149 670
e 150 580
e 150 869
e 150 400
e 150 532
e 150 831
e 151 354
e 151 769
e 151 739
e 152 479
e 152 437
e 152 311
e 152 705
e 152 750
e 152 609
e 152 320
e 152 729
e 152 866
e 153 346
e 153 310
e 153 419
e 153 572
e 153 800
e 154 641
e 154 605
e 156 160
e 156 395
e 156 319
e 156 793
e 156 863
e 157 742
e 157 629
e 157 214
e 157 293
e 158 977
e 158 929
e 158 621
e 160 362
e 160 448
e 160 647
e 160 622
e 161 403
e 161 859
e 161 631
e 161 604
e 161 165
e 162 537
e 162 464
e 162 296
e 163 684
e 163 333
e 163 413
e 163 441
e 164 904
e 164 713
e 164 580
e 165 283
e 165 511
e 165 427
e 165 475
e 167 661
e 167 550
e 167 521
e 168 689
e 168 490
e 168 252
e 168 563
e 169 239
e 169 998
e 169 576
e 169 713
e 169 334
e 169 979
e 172 427
e 172 424
e 172 968
e 172 575
e 172 962
e 173 534
e 173 263
e 173 691
e 173 690
e 174 337
e 174 527
e 174 801
e 175 469
e 175 918
e 175 764
e 175 293
e 175 423
e 175 855
e 175 466
e 176 877
e 176 533
e 176 820
e 177 329
e 177 579
e 177 782
e 177 908
e 177 464
e 177 518
e 177 517
e 177 289
e 178 282
e 178 617
e 178 268
e 178 853
e 179 261
e 179 940
e 179 769
e 180 771
e 180 815
e 182 936
e 182 576
e 182 198
e 185 677
e 185 260
e 185 749
e 185 451
e 187 353
e 187 787
e 187 708
e 189 543
e 189 607
e 189 794
e 189 889
e 190 840
e 190 841
e 190 262
e 191 986
e 191 238
e 191 906
e 192 624
e 192 576
e 193 827
e 193 419
e 193 222
e 194 811
e 194 862
e 194 969
e 194 661
e 196 654
e 196 222
e 196 552
e 197 654
e 197 228
e 197 847
e 197 890
e 198 535
e 198 772
e 198 819
e 198 386
e 199 732
e 199 647
e 199 222
e 200 434
e 200 779
e 201 694
e 201 974
e 201 733
e 201 576
e 203 818
e 203 924
e 203 983
e 203 550
e 203 719
e 203 330
e 204 573
e 204 410
e 204 294
e 205 897
e 205 494
e 205 966
e 205 241
e 205 404
e 205 378
e 207 761
e 207 247
e 207 261
e 208 688
e 208 906
e 208 359
e 208 789
e 209 941
e 209 992
e 209 775
e 209 565
e 209 643
e 210 974
e 210 577
e 210 940
e 210 303
e 210 327
e 210 747
e 211 839
e 211 953
e 212 805
e 212 228
e 212 876
e 212 957
e 212 332
e 212 265
e 212 621
e 212 426
e 212 513
e 214 389
e 214 917
e 214 593
e 216 400
e 216 944
e 216 424
e 216 450
e 217 902
e 217 485
e 217 479
e 217 241
e 217 854
e 218 687
e 218 962
e 218 887
e 220 634
e 220 347
e 220 290
e 221 781
e 221 539
e 221 862
e 222 660
e 222 454
e 222 260
e 223 728
e 223 917
e 223 634
e 223 346
e 224 707
e 224 643
e 224 405
e 224 794
e 225 689
e 225 352
e 225 452
e 226 662
e 226 656
e 226 677
e 227 285
e 227 700
e 227 531
e 228 794
e 228 641
e 228 983
e 228 586
e 229 821
e 229 538
e 229 822
e 232 302
e 232 728
e 232 793
e 233 625
e 237 876
e 237 369
e 237 731
e 237 992
e 237 383
e 237 708
e 237 784
e 237 767
e 237 271
e 238 938
e 238 594
e 238 286
e 239 389
e 239 833
e 240 684
e 240 777
e 240 495
e 240 592
e 240 311
e 241 918
e 241 957
e 241 833
e 242 496
e 242 884
e 242 580
e 244 668
e 244 454
e 247 528
e 247 757
e 247 891
e 247 270
e 249 278
e 249 288
e 249 420
e 251 512
e 251 670
e 251 587
e 252 789
e 252 423
e 252 911
e 252 349
e 252 406
e 253 458
e 253 918
e 253 606
e 253 851
e 255 878
e 255 696
e 255 827
e 255 846
e 255 445
e 256 854
e 256 956
e 256 327
e 258 710
e 258 594
e 258 340
e 260 694
e 260 310
e 260 607
e 260 763
e 261 481
e 261 420
e 262 973
e 262 444
e 262 264
e 263 711
e 263 731
e 263 320
e 263 660
e 263 882
e 263 378
e 263 331
e 263 267
e 264 508
e 264 793
e 264 671
e 264 558
e 265 301
e 265 927
e 265 937
e 265 332
e 266 296
e 266 745
e 266 802
e 267 848
e 267 776
e 267 538
e 267 491
e 268 575
e 268 805
e 268 587
e 269 494
e 269 928
e 269 511
e 269 879
e 270 299
e 270 406
e 270 640
e 270 711
e 271 965
e 271 575
e 271 652
e 272 539
e 272 772
e 272 399
e 272 508
e 272 310
e 272 453
e 272 311
e 273 539
e 273 946
e 274 381
e 274 302
e 274 366
e 274 858
e 275 484
e 275 852
e 275 557
e 276 784
e 276 658
e 276 841
e 276 283
e 276 942
e 278 550
e 278 614
e 279 522
e 279 768
e 280 445
e 280 666
e 280 319
e 280 570
e 281 506
e 281 429
e 281 481
e 282 742
e 282 568
e 282 420
e 283 437
e 283 962
e 283 730
e 286 532
e 286 564
e 288 538
e 288 785
e 288 896
e 289 695
e 289 604
e 289 383
e 290 379
e 290 836
e 290 345
e 290 488
e 290 405
e 291 756
e 291 960
e 291 856
e 291 732
e 291 346
e 291 787
e 293 989
e 293 852
e 293 813
e 293 660
e 293 322
e 293 540
e 294 539
e 294 388
e 295 884
e 295 682
e 296 358
e 296 878
e 296 833
e 296 798
e 296 890
e 297 345
e 297 299
e 297 352
e 298 419
e 298 782
e 298 976
e 298 474
e 298 542
e 298 450
e 299 615
e 299 978
e 299 888
e 299 535
e 300 411
e 300 559
e 300 398
e 301 580
e 301 383
e 301 466
e 301 661
e 301 442
e 302 982
e 302 434
e 302 693
e 302 450
e 303 908
e 303 366
e 303 859
e 307 964
e 307 786
e 307 909
e 307 763
e 308 352
e 308 552
e 308 578
e 308 574
e 308 491
e 308 329
e 309 719
e 309 982
e 309 890
e 309 533
e 310 540
e 311 902
e 311 815
e 311 439
e 313 674
e 313 477
e 313 554
e 314 968
e 314 795
e 314 751
e 314 951
e 315 768
e 315 418
e 319 452
e 320 926
e 320 626
e 322 824
e 322 821
e 323 893
e 323 431
e 323 697
e 327 845
e 327 876
e 327 416
e 329 918
e 329 802
e 329 387
e 329 988
e 329 962
e 330 418
e 330 942
e 330 523
e 331 674
e 331 572
e 331 487
e 332 521
e 332 638
e 332 615
e 332 426
e 333 405
e 333 531
e 333 589
e 333 654
e 333 710
e 334 799
e 334 695
e 335 474
e 335 863
e 335 888
e 337 826
e 337 500
e 337 658
e 337 682
e 337 634
e 337 745
e 337 905
e 338 605
e 338 713
e 339 491
e 339 649
e 339 730
e 340 415
e 340 849
e 341 998
e 341 813
e 341 564
e 341 537
e 342 989
e 342 799
e 342 960
e 343 604
e 343 896
e 343 807
e 344 991
e 344 559
e 344 430
e 345 756
e 345 940
e 345 996
e 345 652
e 347 651
e 347 876
e 347 712
e 347 398
e 349 714
e 349 564
e 349 436
e 349 367
e 350 490
e 350 355
e 350 643
e 350 366
e 350 630
e 352 957
e 352 448
e 352 433
e 353 878
e 353 886
e 353 702
e 353 858
e 354 434
e 355 896
e 356 425
e 356 557
e 356 514
e 356 974
e 357 854
e 357 829
e 358 638
e 359 955
e 359 397
e 359 792
e 360 487
e 360 888
e 361 983
e 361 881
e 362 705
e 362 716
e 362 615
e 364 745
e 364 711
e 366 426
e 366 531
e 367 454
e 367 594
e 367 483
e 367 400
e 369 611
e 369 394
e 369 978
e 370 777
e 370 850
e 370 902
e 370 981
e 370 691
e 373 983
e 373 860
e 373 878
e 373 854
e 373 742
e 373 944
e 377 824
e 377 490
e 377 421
e 377 465
e 378 655
e 378 526
e 378 755
e 379 780
e 379 918
e 381 425
e 381 801
e 381 523
e 381 974
e 381 500
e 381 539
e 383 719
e 383 666
e 383 940
e 385 877
e 385 587
e 385 397
e 385 629
e 386 668
e 387 404
e 388 481
e 388 557
e 388 437
e 388 981
e 388 830
e 389 654
e 390 946
e 390 594
e 390 745
e 390 433
e 390 878
e 391 711
e 391 559
e 391 956
e 392 727
e 392 904
e 394 435
e 394 853
e 394 457
e 395 424
e 395 558
e 396 831
e 396 863
e 396 727
e 397 715
e 397 757
e 398 840
e 398 705
e 399 801
e 399 473
e 399 526
e 399 915
e 399 505
e 399 487
e 400 465
e 400 406
e 400 667
e 400 488
e 401 951
e 401 662
e 403 520
e 403 845
e 404 824
e 404 579
e 404 511
e 404 801
e 404 610
e 404 505
e 405 905
e 405 502
e 405 990
e 405 662
e 405 828
e 410 496
e 411 502
e 411 477
e 411 471
e 412 878
e 413 855
e 413 446
e 414 722
e 414 602
e 414 915
e 415 936
e 415 889
e 415 483
e 416 583
e 416 991
e 418 735
e 419 571
e 419 954
e 419 644
e 419 425
e 420 767
e 420 535
e 420 965
e 420 469
e 420 758
e 420 571
e 420 888
e 421 443
e 421 669
e 421 764
e 423 527
e 423 954
e 423 500
e 424 882
e 424 475
e 425 926
e 425 684
e 426 668
e 426 504
e 426 851
e 426 646
e 427 873
e 428 537
e 428 603
e 428 882
e 428 771
e 429 936
e 429 960
e 429 847
e 430 462
e 430 899
e 430 568
e 431 936
e 431 696
e 431 897
e 431 506
e 432 588
e 432 986
e 432 437
e 432 896
e 433 650
e 435 839
e 435 811
e 436 771
e 436 767
e 437 650
e 437 917
e 439 523
e 439 508
e 439 732
e 441 575
e 441 976
e 441 904
e 441 808
e 442 454
e 442 944
e 442 998
e 442 638
e 442 540
e 443 841
e 443 587
e 444 583
e 444 662
e 445 849
e 445 609
e 445 877
e 445 720
e 445 547
e 446 832
e 446 565
e 446 452
e 446 787
e 447 577
e 447 829
e 447 793
e 447 953
e 447 528
e 447 474
e 447 794
e 448 846
e 448 653
e 448 621
e 448 633
e 450 520
e 450 966
e 450 837
e 451 742
e 451 673
e 452 552
e 452 532
e 453 504
e 454 640
e 454 976
e 454 576
e 454 869
e 454 902
e 455 606
e 455 542
e 455 538
e 455 992
e 457 471
e 457 819
e 457 558
e 458 495
e 459 671
e 459 651
e 459 542
e 462 831
e 464 782
e 464 705
e 464 552
e 464 783
e 464 644
e 465 508
e 465 474
e 465 876
e 465 848
e 466 527
e 466 858
e 467 504
e 467 617
e 467 933
e 469 570
e 471 514
e 471 515
e 472 943
e 472 475
e 472 657
e 473 965
e 473 614
e 473 598
e 477 641
e 479 606
e 481 833
e 481 928
e 483 597
e 484 705
e 484 931
e 484 490
e 484 602
e 485 854
e 485 872
e 487 969
e 488 570
e 488 894
e 488 670
e 488 508
e 488 598
e 489 715
e 489 540
e 489 808
e 489 905
e 491 611
e 492 597
e 492 863
e 494 564
e 494 835
e 494 780
e 494 712
e 495 614
e 495 876
e 495 547
e 502 941
e 502 689
e 504 746
e 504 863
e 504 541
e 504 607
e 504 611
e 505 944
e 505 682
e 505 998
e 506 512
e 508 697
e 508 924
e 510 777
e 510 558
e 510 891
e 510 844
e 512 837
e 512 955
e 512 937
e 513 883
e 513 905
e 513 622
e 513 978
e 514 558
e 514 811
e 514 563
e 515 727
e 515 954
e 515 722
e 516 811
e 516 947
e 517 540
e 518 573
e 518 531
e 518 948
e 520 601
e 521 822
e 522 792
e 524 539
e 524 656
e 524 625
e 524 794
e 526 667
e 526 750
e 526 559
e 527 786
e 527 579
e 527 633
e 527 933
e 527 589
e 528 568
e 528 946
e 529 658
e 531 976
e 531 965
e 531 771
e 531 598
e 532 931
e 533 850
e 533 557
e 533 693
e 533 955
e 533 956
e 533 669
e 534 991
e 537 798
e 538 715
e 538 982
e 538 596
e 539 853
e 539 793
e 539 728
e 539 908
e 540 951
e 540 968
e 541 780
e 541 818
e 541 859
e 542 604
e 542 979
e 542 654
e 543 666
e 543 926
e 545 884
e 547 916
e 547 719
e 550 588
e 552 818
e 554 765
e 554 772
e 557 897
e 557 720
e 559 832
e 559 615
e 559 604
e 559 649
e 563 899
e 563 946
e 563 677
e 564 734
e 565 577
e 565 750
e 565 594
e 566 793
e 566 774
e 566 696
e 568 775
e 568 596
e 568 673
e 568 606
e 570 808
e 571 849
e 571 625
e 572 806
e 573 911
e 574 978
e 574 710
e 574 858
e 576 751
e 578 988
e 578 757
e 578 868
e 579 863
e 579 580
e 583 850
e 586 655
e 586 887
e 588 947
e 588 769
e 589 666
e 589 973
e 592 712
e 593 872
e 593 827
e 593 895
e 594 601
e 594 718
e 596 734
e 596 617
e 596 698
e 596 728
e 597 930
e 597 800
e 598 883
e 598 886
e 598 629
e 598 899
e 598 857
e 601 734
e 602 844
e 602 638
e 603 784
e 604 690
e 604 918
e 605 942
e 605 732
e 606 708
e 606 943
e 606 761
e 609 615
e 609 689
e 609 785
e 610 813
e 611 846
e 612 615
e 614 724
e 617 667
e 617 697
e 617 735
e 620 625
e 620 626
e 620 830
e 622 921
e 624 822
e 624 655
e 626 957
e 627 747
e 627 893
e 630 747
e 630 830
e 630 970
e 631 858
e 631 682
e 633 745
e 633 887
e 633 820
e 634 899
e 634 730
e 634 897
e 635 862
e 635 661
e 638 649
e 640 651
e 640 776
e 641 890
e 643 649
e 644 708
e 644 798
e 644 726
e 644 977
e 646 893
e 647 845
e 649 859
e 649 805
e 649 700
e 650 890
e 652 697
e 652 726
e 653 931
e 654 833
e 656 714
e 656 924
e 656 815
e 657 860
e 657 826
e 658 968
e 661 689
e 662 711
e 667 782
e 668 700
e 669 983
e 669 775
e 669 928
e 669 965
e 670 832
e 670 784
e 670 688
e 671 767
e 671 789
e 671 728
e 671 931
e 673 860
e 673 890
e 674 915
e 677 844
e 677 832
e 679 826
e 679 739
e 682 720
e 683 734
e 683 782
e 688 745
e 688 928
e 688 905
e 689 743
e 691 856
e 691 710
e 694 733
e 694 901
e 696 799
e 696 729
e 696 765
e 697 769
e 697 747
e 698 999
e 698 830
e 700 887
e 700 813
e 702 918
e 702 991
e 702 806
e 706 756
e 707 776
e 707 798
e 708 888
e 708 732
e 708 856
e 710 753
e 710 886
e 711 962
e 711 917
e 713 869
e 714 909
e 714 764
e 715 800
e 716 806
e 716 858
e 718 809
e 719 992
e 719 855
e 720 940
e 722 875
e 722 772
e 722 974
e 724 903
e 724 841
e 724 884
e 726 933
e 726 899
e 727 764
e 728 841
e 733 988
e 733 767
e 735 969
e 735 868
e 735 842
e 736 752
e 739 847
e 739 781
e 739 905
e 739 986
e 743 943
e 745 836
e 745 795
e 745 978
e 746 808
e 746 916
e 749 852
e 750 973
e 751 909
e 751 782
e 752 877
e 753 977
e 755 772
e 758 909
e 758 882
e 764 830
e 765 824
e 769 895
e 769 840
e 772 848
e 772 883
e 774 915
e 774 977
e 775 990
e 776 878
e 776 842
e 780 806
e 780 841
e 781 943
e 783 960
e 783 888
e 785 849
e 785 947
e 785 968
e 786 903
e 787 793
e 793 882
e 795 927
e 795 896
e 799 930
e 800 857
e 801 946
e 806 975
e 806 826
e 807 974
e 808 937
e 809 968
e 811 999
e 811 933
e 811 819
e 820 918
e 820 948
e 821 937
e 822 877
e 826 975
e 826 986
e 827 840
e 827 877
e 828 856
e 828 899
e 829 866
e 830 910
e 832 853
e 833 961
e 835 946
e 835 842
e 842 893
e 844 883
e 844 979
e 845 953
e 846 859
e 848 964
e 848 851
e 850 953
e 852 926
e 853 943
e 854 968
e 854 868
e 855 860
e 857 904
e 858 916
e 860 964
e 860 940
e 868 878
e 869 992
e 873 999
e 873 973
e 881 938
e 881 997
e 881 976
e 884 915
e 884 961
e 887 927
e 889 937
e 891 927
e 896 942
e 904 975
e 905 941
e 906 909
e 906 929
e 910 962
e 916 927
e 916 982
e 921 961
e 927 979
e 929 955
e 930 940
e 938 988
e 942 961
e 948 996
e 953 982
e 955 969
e 964 992
